1 1 0 1 0 1 1 0 1 1 1 1 1 0 
0 33 57 71 22 46 31 28 47 42 17 51 54 45 
33 0 33 26 47 24 19 27 20 75 36 24 41 59 
57 33 0 50 40 33 74 32 16 15 80 71 69 18 
71 26 50 0 71 35 76 76 40 28 64 61 39 60 
22 47 40 71 0 23 42 47 33 54 45 49 74 37 
46 24 33 35 23 0 71 69 35 35 21 16 21 55 
31 19 74 76 42 71 0 40 44 18 20 43 50 22 
28 27 32 76 47 69 40 0 79 71 39 31 70 47 
47 20 16 40 33 35 44 79 0 77 48 70 28 64 
42 75 15 28 54 35 18 71 77 0 28 67 18 76 
17 36 80 64 45 21 20 39 48 28 0 67 27 26 
51 24 71 61 49 16 43 31 70 67 67 0 22 71 
54 41 69 39 74 21 50 70 28 18 27 22 0 19 
45 59 18 60 37 55 22 47 64 76 26 71 19 0 
2 50
1P 5B 6P 12P 8B 2P 4P 10P 3B 9P 13P 14B 7P 11P = 310